32      4       
15      18      20      20      
0       0       0       0       0       12      2       3       4       6       7       10      11      12      13      21      22      31      
10      1       0       1       0       4       5       18      19      28      
8       0       1       0       6       6       14      16      17      18      20      30      
1       6       0       0       6       4       9       18      24      29      
2       1       1       0       0       2       8       17      
8       7       0       6       0       4       15      16      17      25      
2       0       1       7       0       5       17      23      25      26      27      
5       0       0       11      4       2       9       25      
8       3       0       1       0       3       16      23      26      
7       0       7       0       5       3       18      19      24      
9       0       0       1       2       3       23      24      25      
1       1       0       0       11      2       16      23      
2       15      9       0       0       2       20      24      
6       1       0       0       3       2       25      26      
9       8       0       7       0       2       23      26      
1       0       0       1       1       1       27      
5       0       9       10      0       1       24      
8       0       1       0       8       1       25      
9       1       0       0       5       1       25      
3       0       8       13      0       1       23      
2       1       1       0       0       1       24      
2       0       0       7       1       1       24      
10      0       1       0       2       1       32      
1       1       9       0       0       1       32      
6       0       1       1       0       1       32      
9       0       0       2       8       1       32      
7       1       10      0       0       1       32      
5       4       0       6       0       1       32      
4       0       7       0       10      1       32      
2       5       0       1       0       1       32      
3       0       2       0       3       1       32      
0       0       0       0       0       0       
